p wcnf 8 30 161
161 1 2 0
161 1 3 0
161 1 4 0
161 1 5 0
161 1 7 0
161 1 8 0
161 2 3 0
161 2 5 0
161 2 6 0
161 2 7 0
161 3 4 0
161 3 5 0
161 3 6 0
161 3 8 0
161 4 5 0
161 4 7 0
161 4 8 0
161 5 6 0
161 5 7 0
161 5 8 0
161 6 7 0
161 7 8 0
16 -1 0
17 -2 0
16 -3 0
17 -4 0
15 -5 0
18 -6 0
16 -7 0
17 -8 0
